SAT
-68 -99 -123 -125 -121 29 -87 -66 65 43 -96 -27 33 1 64 119 -11 10 32 -2 83 108 89 -94 -85 -115 30 -59 16 -93 -42 44 7 24 100 101 -124 61 -31 -63 97 50 -86 -25 84 40 -60 117 91 22 -18 -41 14 3 -103 58 116 55 -15 -105 -45 -76 -34 92 -5 -39 17 81 98 -62 -38 95 -26 -36 -72 80 54 -112 122 -71 67 35 -69 12 -6 -82 102 52 -111 118 79 -28 -77 -53 70 -20 57 8 120 -109 -78 46 9 74 113 -88 -13 4 -37 -114 -49 -23 47 104 56 51 107 110 -75 73 106 -19 -90 48 -21 0
